c User generated cnf file
p cnf 14 28
12 7 -1 0 
-10 11 5 0 
3 -6 7 0 
9 13 -1 0 
-3 5 11 0 
3 9 -7 0 
13 -4 2 0 
7 3 -9 0 
-9 9 12 0 
4 -2 3 0 
7 -7 2 0 
5 11 -5 0 
-8 14 2 0 
-11 14 7 0 
14 10 -3 0 
-12 14 8 0 
14 -11 8 0 
2 -10 8 0 
8 -3 10 0 
13 14 -1 0 
9 -6 3 0 
7 -3 13 0 
-1 1 7 0 
11 9 -7 0 
1 -5 4 0 
3 -14 7 0 
-2 1 8 0 
3 7 -6 0 
